Version identifier: 20.1.0.0 | 2020-11-10 | 9bedb6d68
Tried aggregator 2 times.
MIP Presolve eliminated 870 rows and 490 columns.
MIP Presolve modified 1738 coefficients.
Aggregator did 102 substitutions.
Reduced MIP has 734 rows, 615 columns, and 2332 nonzeros.
Reduced MIP has 158 binaries, 457 generals, 0 SOSs, and 0 indicators.
Presolve time = 0.01 sec. (3.77 ticks)
Found incumbent of value 865.000000 after 0.02 sec. (5.87 ticks)
Probing fixed 20 vars, tightened 154 bounds.
Probing time = 0.00 sec. (0.57 ticks)
Tried aggregator 2 times.
Detecting symmetries...
MIP Presolve eliminated 297 rows and 20 columns.
MIP Presolve modified 48 coefficients.
Aggregator did 3 substitutions.
Reduced MIP has 434 rows, 592 columns, and 1418 nonzeros.
Reduced MIP has 189 binaries, 403 generals, 0 SOSs, and 0 indicators.
Presolve time = 0.00 sec. (1.92 ticks)
Probing time = 0.00 sec. (0.11 ticks)
Clique table members: 21.
MIP emphasis: balance optimality and feasibility.
MIP search method: dynamic search.
Parallel mode: deterministic, using up to 24 threads.
Root relaxation solution time = 0.00 sec. (1.10 ticks)

        Nodes                                         Cuts/
   Node  Left     Objective  IInf  Best Integer    Best Bound    ItCnt     Gap

*     0+    0                          865.0000        0.0000           100.00%
      0     0        0.0000    36      865.0000        0.0000      130  100.00%
*     0+    0                           15.0000        0.0000           100.00%
      0     0        1.4000    44       15.0000     Cuts: 100      238   90.67%
*     0+    0                           13.0000        1.4000            89.23%
      0     0        2.0000    50       13.0000      Cuts: 52      275   84.62%
      0     0        2.0000   101       13.0000      Cuts: 40      328   84.62%
      0     0        2.0000    35       13.0000      Cuts: 19      342   84.62%
      0     0        2.0000    88       13.0000      Cuts: 35      372   84.62%
*     0+    0                           11.0000        2.0000            81.82%
*     0+    0                            9.0000        2.0000            77.78%
*     0+    0                            8.0000        2.0000            75.00%
      0     0        cutoff              8.0000        8.0000      372    0.00%
Elapsed time = 0.14 sec. (56.93 ticks, tree = 0.01 MB, solutions = 6)

Implied bound cuts applied:  24
Flow cuts applied:  4
Mixed integer rounding cuts applied:  6
Zero-half cuts applied:  37
Lift and project cuts applied:  1
Gomory fractional cuts applied:  15

Root node processing (before b&c):
  Real time             =    0.14 sec. (57.02 ticks)
Parallel b&c, 24 threads:
  Real time             =    0.00 sec. (0.00 ticks)
  Sync time (average)   =    0.00 sec.
  Wait time (average)   =    0.00 sec.
                          ------------
Total (root+branch&cut) =    0.14 sec. (57.02 ticks)

Solution status = Optimal
Solution LB = 8
Solution UB = 8
Runtime = 0.142562 seconds
	Command being timed: "/home/min/git_repos/CS598MEBProject/CNT-ILP/build/cnt -s 2 ./output/k6_n20/simC_c1_k6_n20_u2_s1_del02.input-left.cnp"
	User time (seconds): 1.32
	System time (seconds): 0.03
	Percent of CPU this job got: 765%
	Elapsed (wall clock) time (h:mm:ss or m:ss): 0:00.17
	Average shared text size (kbytes): 0
	Average unshared data size (kbytes): 0
	Average stack size (kbytes): 0
	Average total size (kbytes): 0
	Maximum resident set size (kbytes): 52136
	Average resident set size (kbytes): 0
	Major (requiring I/O) page faults: 0
	Minor (reclaiming a frame) page faults: 10017
	Voluntary context switches: 1816
	Involuntary context switches: 188
	Swaps: 0
	File system inputs: 0
	File system outputs: 16
	Socket messages sent: 0
	Socket messages received: 0
	Signals delivered: 0
	Page size (bytes): 4096
	Exit status: 0
